20171231 424300.00 226500.00
20171220 424299.39 226834.92
20170630 410066.91 230720.42
20161231 410066.91 239613.90
20160630 410066.91 238220.04
20160511 410066.91 238220.04
20151105 273377.94 152139.25
